NAME: cum130.tsp
TYPE: TSP
COMMENT: User-generated TSP file
DIMENSION: 650
EDGE_WEIGHT_TYPE: EUC_2D
NODE_COORD_SECTION
1 117.0 91.0
2 198.0 394.0
3 97.0 514.0
4 270.0 282.0
5 247.0 300.0
6 208.0 477.0
7 136.0 310.0
8 81.0 498.0
9 166.0 489.0
10 501.0 54.0
11 410.0 573.0
12 533.0 588.0
13 469.0 343.0
14 85.0 364.0
15 442.0 476.0
16 117.0 350.0
17 571.0 304.0
18 107.0 568.0
19 152.0 589.0
20 168.0 507.0
21 461.0 369.0
22 156.0 464.0
23 430.0 433.0
24 309.0 635.0
25 191.0 162.0
26 168.0 387.0
27 126.0 567.0
28 221.0 140.0
29 139.0 30.0
30 413.0 228.0
31 112.0 604.0
32 627.0 6.0
33 408.0 483.0
34 141.0 93.0
35 182.0 395.0
36 131.0 272.0
37 79.0 352.0
38 247.0 456.0
39 574.0 562.0
40 443.0 497.0
41 100.0 396.0
42 129.0 40.0
43 339.0 533.0
44 277.0 249.0
45 33.0 113.0
46 326.0 10.0
47 66.0 301.0
48 279.0 155.0
49 24.0 18.0
50 252.0 315.0
51 541.0 502.0
52 20.0 557.0
53 562.0 576.0
54 517.0 454.0
55 84.0 159.0
56 203.0 276.0
57 494.0 485.0
58 54.0 390.0
59 299.0 413.0
60 136.0 547.0
61 122.0 325.0
62 32.0 552.0
63 192.0 120.0
64 270.0 563.0
65 211.0 75.0
66 233.0 579.0
67 172.0 529.0
68 533.0 69.0
69 35.0 230.0
70 543.0 7.0
71 247.0 614.0
72 116.0 616.0
73 504.0 225.0
74 419.0 475.0
75 447.0 519.0
76 60.0 346.0
77 45.0 265.0
78 60.0 446.0
79 633.0 365.0
80 427.0 555.0
81 48.0 535.0
82 386.0 463.0
83 230.0 556.0
84 373.0 217.0
85 581.0 330.0
86 348.0 487.0
87 453.0 204.0
88 405.0 216.0
89 594.0 613.0
90 399.0 399.0
91 9.0 564.0
92 285.0 48.0
93 145.0 591.0
94 73.0 583.0
95 457.0 98.0
96 457.0 625.0
97 333.0 436.0
98 649.0 239.0
99 178.0 324.0
100 318.0 599.0
101 557.0 303.0
102 631.0 327.0
103 277.0 95.0
104 145.0 369.0
105 136.0 163.0
106 183.0 381.0
107 365.0 470.0
108 476.0 313.0
109 406.0 254.0
110 553.0 34.0
111 612.0 621.0
112 513.0 626.0
113 310.0 265.0
114 52.0 649.0
115 301.0 535.0
116 565.0 105.0
117 30.0 64.0
118 480.0 606.0
119 98.0 356.0
120 348.0 413.0
121 203.0 121.0
122 405.0 488.0
123 241.0 314.0
124 630.0 372.0
125 500.0 198.0
126 517.0 585.0
127 24.0 638.0
128 629.0 361.0
129 262.0 511.0
130 232.0 419.0
131 354.0 522.0
132 384.0 87.0
133 63.0 13.0
134 231.0 227.0
135 520.0 554.0
136 164.0 476.0
137 85.0 156.0
138 415.0 510.0
139 309.0 499.0
140 1.0 180.0
141 451.0 583.0
142 62.0 643.0
143 224.0 62.0
144 576.0 365.0
145 116.0 128.0
146 254.0 571.0
147 314.0 190.0
148 23.0 649.0
149 574.0 367.0
150 163.0 410.0
151 563.0 127.0
152 40.0 414.0
153 304.0 508.0
154 54.0 179.0
155 178.0 115.0
156 456.0 533.0
157 20.0 119.0
158 281.0 249.0
159 56.0 426.0
160 126.0 385.0
161 260.0 558.0
162 130.0 550.0
163 119.0 539.0
164 259.0 499.0
165 346.0 163.0
166 374.0 534.0
167 400.0 574.0
168 210.0 295.0
169 258.0 465.0
170 613.0 125.0
171 431.0 45.0
172 321.0 601.0
173 429.0 72.0
174 62.0 101.0
175 318.0 274.0
176 218.0 583.0
177 230.0 256.0
178 77.0 376.0
179 601.0 324.0
180 394.0 530.0
181 518.0 56.0
182 347.0 397.0
183 401.0 101.0
184 582.0 128.0
185 477.0 587.0
186 396.0 569.0
187 186.0 628.0
188 472.0 383.0
189 57.0 100.0
190 616.0 117.0
191 206.0 314.0
192 294.0 424.0
193 617.0 207.0
194 82.0 415.0
195 149.0 306.0
196 455.0 297.0
197 626.0 67.0
198 185.0 555.0
199 415.0 559.0
200 321.0 215.0
201 537.0 30.0
202 23.0 390.0
203 382.0 598.0
204 21.0 555.0
205 181.0 148.0
206 208.0 276.0
207 75.0 480.0
208 541.0 394.0
209 221.0 322.0
210 386.0 75.0
211 161.0 15.0
212 187.0 416.0
213 147.0 4.0
214 82.0 57.0
215 420.0 302.0
216 416.0 429.0
217 162.0 126.0
218 136.0 21.0
219 315.0 446.0
220 636.0 588.0
221 521.0 46.0
222 458.0 318.0
223 363.0 565.0
224 364.0 623.0
225 513.0 425.0
226 500.0 199.0
227 542.0 391.0
228 514.0 27.0
229 610.0 425.0
230 414.0 463.0
231 513.0 244.0
232 517.0 498.0
233 88.0 193.0
234 461.0 125.0
235 274.0 509.0
236 350.0 130.0
237 227.0 119.0
238 184.0 353.0
239 246.0 610.0
240 447.0 31.0
241 201.0 407.0
242 290.0 236.0
243 363.0 524.0
244 645.0 228.0
245 588.0 567.0
246 200.0 517.0
247 542.0 316.0
248 153.0 103.0
249 540.0 164.0
250 447.0 355.0
251 414.0 157.0
252 475.0 545.0
253 284.0 526.0
254 161.0 272.0
255 274.0 533.0
256 277.0 347.0
257 640.0 206.0
258 26.0 502.0
259 276.0 117.0
260 310.0 358.0
261 202.0 7.0
262 307.0 611.0
263 316.0 577.0
264 158.0 650.0
265 402.0 99.0
266 103.0 594.0
267 299.0 295.0
268 402.0 250.0
269 379.0 615.0
270 492.0 214.0
271 302.0 455.0
272 292.0 564.0
273 144.0 475.0
274 643.0 517.0
275 611.0 395.0
276 44.0 168.0
277 592.0 248.0
278 171.0 588.0
279 372.0 561.0
280 528.0 194.0
281 379.0 122.0
282 240.0 373.0
283 89.0 220.0
284 238.0 601.0
285 56.0 153.0
286 458.0 568.0
287 261.0 620.0
288 513.0 637.0
289 538.0 428.0
290 221.0 505.0
291 524.0 89.0
292 475.0 514.0
293 478.0 119.0
294 140.0 616.0
295 20.0 349.0
296 9.0 616.0
297 507.0 519.0
298 92.0 285.0
299 142.0 187.0
300 253.0 395.0
301 344.0 437.0
302 191.0 246.0
303 280.0 368.0
304 420.0 159.0
305 224.0 128.0
306 431.0 240.0
307 598.0 60.0
308 310.0 389.0
309 410.0 218.0
310 402.0 191.0
311 112.0 430.0
312 435.0 302.0
313 133.0 154.0
314 529.0 158.0
315 569.0 539.0
316 38.0 617.0
317 32.0 93.0
318 225.0 232.0
319 322.0 512.0
320 460.0 274.0
321 104.0 297.0
322 289.0 75.0
323 603.0 207.0
324 276.0 93.0
325 168.0 452.0
326 499.0 586.0
327 273.0 496.0
328 455.0 86.0
329 331.0 84.0
330 400.0 574.0
331 26.0 490.0
332 267.0 135.0
333 136.0 231.0
334 95.0 479.0
335 238.0 649.0
336 148.0 591.0
337 566.0 210.0
338 427.0 154.0
339 22.0 8.0
340 253.0 501.0
341 342.0 626.0
342 613.0 419.0
343 364.0 124.0
344 572.0 545.0
345 619.0 422.0
346 230.0 535.0
347 87.0 125.0
348 89.0 11.0
349 101.0 535.0
350 546.0 441.0
351 599.0 150.0
352 590.0 103.0
353 361.0 207.0
354 554.0 144.0
355 143.0 593.0
356 344.0 467.0
357 200.0 27.0
358 610.0 265.0
359 644.0 377.0
360 79.0 4.0
361 275.0 433.0
362 190.0 606.0
363 599.0 592.0
364 184.0 623.0
365 558.0 244.0
366 428.0 478.0
367 162.0 297.0
368 169.0 464.0
369 9.0 627.0
370 25.0 266.0
371 540.0 378.0
372 460.0 64.0
373 39.0 421.0
374 573.0 17.0
375 395.0 580.0
376 506.0 270.0
377 426.0 326.0
378 303.0 13.0
379 145.0 260.0
380 336.0 191.0
381 598.0 514.0
382 105.0 182.0
383 15.0 491.0
384 299.0 400.0
385 650.0 174.0
386 200.0 85.0
387 127.0 455.0
388 373.0 554.0
389 371.0 295.0
390 265.0 421.0
391 492.0 163.0
392 265.0 628.0
393 507.0 372.0
394 207.0 368.0
395 568.0 589.0
396 28.0 295.0
397 330.0 163.0
398 618.0 219.0
399 611.0 421.0
400 5.0 33.0
401 85.0 481.0
402 194.0 325.0
403 11.0 107.0
404 363.0 153.0
405 519.0 604.0
406 45.0 576.0
407 87.0 141.0
408 47.0 615.0
409 123.0 453.0
410 554.0 431.0
411 434.0 161.0
412 489.0 611.0
413 275.0 414.0
414 542.0 522.0
415 222.0 398.0
416 580.0 356.0
417 405.0 43.0
418 161.0 581.0
419 184.0 502.0
420 182.0 141.0
421 253.0 634.0
422 117.0 382.0
423 163.0 260.0
424 447.0 593.0
425 78.0 562.0
426 67.0 401.0
427 77.0 190.0
428 81.0 569.0
429 190.0 72.0
430 610.0 459.0
431 255.0 34.0
432 105.0 640.0
433 400.0 141.0
434 263.0 416.0
435 218.0 33.0
436 34.0 231.0
437 245.0 414.0
438 19.0 246.0
439 39.0 545.0
440 252.0 223.0
441 183.0 539.0
442 182.0 533.0
443 23.0 533.0
444 109.0 482.0
445 476.0 35.0
446 353.0 508.0
447 306.0 61.0
448 599.0 281.0
449 55.0 103.0
450 21.0 229.0
451 573.0 648.0
452 309.0 17.0
453 627.0 483.0
454 454.0 41.0
455 187.0 413.0
456 476.0 232.0
457 547.0 55.0
458 308.0 457.0
459 324.0 388.0
460 24.0 482.0
461 98.0 399.0
462 152.0 229.0
463 178.0 615.0
464 549.0 358.0
465 446.0 515.0
466 424.0 69.0
467 375.0 257.0
468 364.0 619.0
469 221.0 447.0
470 246.0 29.0
471 574.0 573.0
472 373.0 104.0
473 412.0 343.0
474 29.0 639.0
475 355.0 117.0
476 639.0 446.0
477 160.0 445.0
478 48.0 564.0
479 14.0 266.0
480 575.0 618.0
481 551.0 474.0
482 378.0 330.0
483 204.0 491.0
484 50.0 82.0
485 165.0 544.0
486 451.0 68.0
487 182.0 592.0
488 491.0 397.0
489 127.0 226.0
490 478.0 40.0
491 551.0 287.0
492 596.0 634.0
493 497.0 423.0
494 26.0 572.0
495 210.0 139.0
496 577.0 27.0
497 92.0 369.0
498 525.0 328.0
499 383.0 238.0
500 441.0 99.0
501 608.0 400.0
502 519.0 251.0
503 434.0 204.0
504 302.0 482.0
505 57.0 533.0
506 235.0 27.0
507 471.0 401.0
508 641.0 488.0
509 300.0 299.0
510 75.0 152.0
511 325.0 369.0
512 457.0 499.0
513 155.0 370.0
514 180.0 413.0
515 361.0 497.0
516 606.0 455.0
517 621.0 442.0
518 323.0 522.0
519 453.0 415.0
520 137.0 265.0
521 6.0 518.0
522 409.0 97.0
523 235.0 70.0
524 254.0 312.0
525 600.0 502.0
526 320.0 44.0
527 357.0 314.0
528 389.0 646.0
529 215.0 256.0
530 264.0 548.0
531 445.0 332.0
532 621.0 91.0
533 165.0 471.0
534 261.0 4.0
535 522.0 125.0
536 314.0 328.0
537 495.0 471.0
538 312.0 16.0
539 448.0 6.0
540 244.0 436.0
541 273.0 445.0
542 353.0 222.0
543 325.0 382.0
544 282.0 156.0
545 209.0 482.0
546 385.0 643.0
547 329.0 643.0
548 349.0 446.0
549 307.0 456.0
550 411.0 308.0
551 195.0 88.0
552 237.0 59.0
553 108.0 167.0
554 465.0 49.0
555 340.0 440.0
556 364.0 512.0
557 319.0 5.0
558 398.0 102.0
559 200.0 155.0
560 507.0 91.0
561 540.0 568.0
562 543.0 284.0
563 472.0 173.0
564 606.0 20.0
565 202.0 532.0
566 115.0 69.0
567 99.0 557.0
568 384.0 495.0
569 58.0 136.0
570 297.0 25.0
571 434.0 448.0
572 4.0 588.0
573 53.0 236.0
574 470.0 486.0
575 84.0 223.0
576 9.0 544.0
577 550.0 133.0
578 220.0 127.0
579 464.0 208.0
580 285.0 619.0
581 154.0 267.0
582 621.0 474.0
583 443.0 229.0
584 52.0 647.0
585 431.0 286.0
586 514.0 421.0
587 205.0 130.0
588 147.0 49.0
589 229.0 338.0
590 487.0 277.0
591 312.0 244.0
592 63.0 444.0
593 142.0 481.0
594 66.0 487.0
595 253.0 369.0
596 576.0 583.0
597 102.0 521.0
598 578.0 79.0
599 349.0 515.0
600 537.0 633.0
601 175.0 18.0
602 144.0 79.0
603 107.0 230.0
604 406.0 419.0
605 374.0 213.0
606 618.0 16.0
607 649.0 281.0
608 438.0 122.0
609 187.0 629.0
610 397.0 465.0
611 645.0 185.0
612 422.0 484.0
613 28.0 343.0
614 546.0 571.0
615 532.0 160.0
616 479.0 93.0
617 630.0 345.0
618 572.0 41.0
619 138.0 448.0
620 618.0 125.0
621 449.0 292.0
622 593.0 391.0
623 211.0 354.0
624 306.0 506.0
625 411.0 439.0
626 7.0 490.0
627 48.0 126.0
628 96.0 408.0
629 626.0 640.0
630 650.0 173.0
631 123.0 610.0
632 216.0 280.0
633 210.0 270.0
634 595.0 516.0
635 489.0 270.0
636 66.0 53.0
637 265.0 9.0
638 412.0 305.0
639 636.0 247.0
640 97.0 132.0
641 248.0 281.0
642 141.0 408.0
643 532.0 333.0
644 390.0 58.0
645 446.0 336.0
646 157.0 607.0
647 191.0 373.0
648 220.0 332.0
649 179.0 219.0
650 412.0 484.0
EOF

